\ LP format - for model browsing. Use MPS format to capture full model detail.
Minimize
  x1
Subject To
 constr(0): - 3 x0p + 3 x0n + 5 x1 = 5
 constr(1): - 2 x0p + 2 x0n - 2 x1 <= 3
Bounds
 x0p <= 4
 x0n <= 4
 x1 <= 4
End
